nEmpreses = 40;
nReunions = 55;
nTaules = 10;
nFrangesTotal = 22;
nFrangesMati = 12;

demanades = [|1, 38, 3,
|4, 1, 3,
|4, 2, 3,
|4, 5, 3,
|9, 1, 2,
|9, 3, 2,
|9, 4, 2,
|14, 2, 2,
|17, 26, 1,
|17, 29, 1,
|17, 36, 1,
|17, 37, 1,
|22, 25, 3,
|23, 30, 3,
|24, 2, 3,
|24, 5, 3,
|24, 6, 3,
|24, 20, 3,
|24, 21, 3,
|24, 26, 3,
|25, 3, 3,
|25, 4, 3,
|25, 24, 3,
|28, 3, 1,
|28, 6, 1,
|28, 12, 1,
|28, 19, 1,
|28, 23, 1,
|33, 26, 3,
|33, 29, 3,
|33, 31, 3,
|34, 2, 3,
|34, 23, 3,
|34, 24, 3,
|35, 5, 3,
|35, 17, 3,
|35, 23, 3,
|35, 28, 3,
|36, 19, 3,
|36, 20, 3,
|36, 21, 3,
|36, 22, 3,
|36, 24, 3,
|36, 27, 3,
|36, 28, 3,
|36, 33, 3,
|36, 34, 3,
|36, 35, 3,
|36, 38, 3,
|36, 39, 3,
|38, 25, 3,
|38, 27, 3,
|38, 39, 3,
|40, 2, 1,
|40, 22, 1,
|];

nReunionsEmpresa = [3, 5, 3, 5, 3, 2, 0, 0, 3, 0, 0, 1, 0, 1, 0, 0, 5, 0, 2, 2, 2, 3, 4, 9, 5, 3, 2, 7, 2, 1, 1, 0, 4, 4, 5, 13, 1, 5, 2, 2, ];
empresesZero = 9;

fixat = [0,0,0,0,0,0,0,0,0,0,0,0,0,0,0,0,0,0,0,0,0,0,0,0,0,0,0,0,0,0,0,0,0,0,0,0,0,0,0,0,0,0,0,0,0,0,0,0,0,0,0,0,0,0,0,];

prohibides = [{0,},
{8,9,0,},
{16,17,18,0,},
{18,19,20,15,16,17,},
{9,1,0,},
{0,},
{10,11,12,0,},
{16,17,18,0,},
{0,},
{17,18,19,0,},
{0,},
{16,17,0,},
{8,9,0,},
{16,17,18,0,},
{0,},
{9,10,11,0,},
{0,},
{16,17,18,0,},
{0,},
{17,18,19,0,},
{0,},
{1,2,3,4,5,},
{0,},
{0,},
{0,},
{16,17,18,0,},
{10,11,12,0,},
{0,},
{0,},
{10,11,12,0,},
{9,10,11,0,},
{18,19,20,0,},
{0,},
{10,11,12,9,},
{0,},
{0,},
{0,},
{0,},
{0,},
{9,1,0,},
];